Minimize
err

Subject To
f-1 + info-1 + s-1 + GPS + comm + SYS >= 2534.532
f-1 + info-1 + s-1 + GPS + comm + SYS - 2534.532 err <= 2534.532
f-6 + info-3 + s-4 + comm + SYS >= 1486.1751012
f-6 + info-3 + s-4 + comm + SYS - 1486.1751012 err <= 1486.1751012
f-1 + info-1 + s-3 + GPS + comm + SYS >= 1977.75684
f-1 + info-1 + s-3 + GPS + comm + SYS - 1977.75684 err <= 1977.75684
f-5 + info-1 + s-2 + comm + SYS >= 2004.37408873
f-5 + info-1 + s-2 + comm + SYS - 2004.37408873 err <= 2004.37408873
f-1 + info-2 + s-1 + GPS + comm + SYS >= 2294.830755
f-1 + info-2 + s-1 + GPS + comm + SYS - 2294.830755 err <= 2294.830755
Bounds
info-3 = 0
f-6 = 0
s-6 = 0
f-3 = 0
End